(declare-fun temp2612_1 () (_ BitVec 64))
(declare-fun var527257 () (_ BitVec 64))
(declare-fun var527256 () (_ BitVec 64))
(declare-fun var134691 () (_ BitVec 64))
(declare-fun var594101 () (_ BitVec 64))
(declare-fun var659958 () (_ BitVec 64))
(declare-fun temp2612_2 () (_ BitVec 64))
(declare-fun var2756219 () (_ BitVec 64))
(declare-fun var2756224 () (_ BitVec 64))
(declare-fun var2885852 () (_ BitVec 64))
(declare-fun temp2612_3 () (_ BitVec 64))
(declare-fun var2953471 () (_ BitVec 64))
(declare-fun var2953459 () (_ BitVec 64))
(declare-fun var134752 () (_ BitVec 64))
(declare-fun temp2612_4 () (_ BitVec 64))
(declare-fun temp2612_5 () (_ BitVec 64))
(declare-fun var3083899 () (_ BitVec 64))
(declare-fun var3083904 () (_ BitVec 64))
(declare-fun var3213532 () (_ BitVec 64))
(declare-fun temp2612_7 () (_ BitVec 64))
(declare-fun temp2612_6 () (_ BitVec 64))
(declare-fun temp2612_9 () (_ BitVec 64))
(declare-fun temp2612_8 () (_ BitVec 64))
(declare-fun temp2612_11 () (_ BitVec 64))
(declare-fun temp2612_10 () (_ BitVec 64))
(declare-fun temp2612_13 () (_ BitVec 64))
(declare-fun temp2612_12 () (_ BitVec 64))
(declare-fun temp2612_15 () (_ BitVec 64))
(declare-fun temp2612_14 () (_ BitVec 64))
(declare-fun temp2612_17 () (_ BitVec 64))
(declare-fun temp2612_16 () (_ BitVec 64))
(declare-fun temp2612_19 () (_ BitVec 64))
(declare-fun temp2612_18 () (_ BitVec 64))
(declare-fun temp2612_21 () (_ BitVec 64))
(declare-fun temp2612_20 () (_ BitVec 64))
(declare-fun temp2612_23 () (_ BitVec 64))
(declare-fun temp2612_22 () (_ BitVec 64))
(declare-fun temp2612_25 () (_ BitVec 64))
(declare-fun temp2612_24 () (_ BitVec 64))
(declare-fun temp2612_27 () (_ BitVec 64))
(declare-fun temp2612_26 () (_ BitVec 64))
(declare-fun temp2612_29 () (_ BitVec 64))
(declare-fun temp2612_28 () (_ BitVec 64))
(declare-fun temp2612_31 () (_ BitVec 64))
(declare-fun temp2612_30 () (_ BitVec 64))
(declare-fun temp2612_33 () (_ BitVec 64))
(declare-fun temp2612_32 () (_ BitVec 64))
(declare-fun temp2612_35 () (_ BitVec 64))
(declare-fun temp2612_34 () (_ BitVec 64))
(declare-fun temp2612_37 () (_ BitVec 64))
(declare-fun temp2612_36 () (_ BitVec 64))
(declare-fun temp2612_39 () (_ BitVec 64))
(declare-fun temp2612_38 () (_ BitVec 64))
(declare-fun temp2612_41 () (_ BitVec 64))
(declare-fun temp2612_40 () (_ BitVec 64))
(declare-fun temp2612_43 () (_ BitVec 64))
(declare-fun temp2612_42 () (_ BitVec 64))
(declare-fun temp2612_45 () (_ BitVec 64))
(declare-fun temp2612_44 () (_ BitVec 64))
(declare-fun temp2612_47 () (_ BitVec 64))
(declare-fun temp2612_46 () (_ BitVec 64))
(declare-fun temp2612_49 () (_ BitVec 64))
(declare-fun temp2612_48 () (_ BitVec 64))
(declare-fun temp2612_51 () (_ BitVec 64))
(declare-fun temp2612_50 () (_ BitVec 64))
(declare-fun temp2612_53 () (_ BitVec 64))
(declare-fun temp2612_52 () (_ BitVec 64))
(assert (= temp2612_1 #x0000000000000007))
(assert (= var527257 temp2612_1))
(assert (= var527256 var527257))
(assert (= var134691 var527256))
(assert (= var594101 var134691))
(assert (= var659958 var594101))
(assert (= temp2612_2 #x0000000000000000))
(assert (= var2756219 temp2612_2))
(assert (= var2756224 var2756219))
(assert (= var2885852 var2756224))
(assert (= temp2612_3 #x0000000000000000))
(assert (= var2953471 temp2612_3))
(assert (= var2953459 var2953471))
(assert (= var134752 var2953459))
(assert (= temp2612_4 #x0000000000000000))
(assert (= var134752 temp2612_4))
(assert (= temp2612_5 #x0000000000000000))
(assert (= var3083899 temp2612_5))
(assert (= var3083904 var3083899))
(assert (= var3213532 var3083904))
(assert (= temp2612_7 #x0000000000000000))
(assert (= temp2612_6 temp2612_7))
(assert (= temp2612_9 #x0000000000000000))
(assert (= temp2612_8 temp2612_9))
(assert (= temp2612_11 #x0000000000000000))
(assert (= temp2612_10 temp2612_11))
(assert (= temp2612_13 #x0000000000000000))
(assert (= temp2612_12 temp2612_13))
(assert (= temp2612_15 #x0000000000000000))
(assert (= temp2612_14 temp2612_15))
(assert (= temp2612_17 #x0000000000000000))
(assert (= temp2612_16 temp2612_17))
(assert (= temp2612_19 #x0000000000000000))
(assert (= temp2612_18 temp2612_19))
(assert (= temp2612_21 #x0000000000000000))
(assert (= temp2612_20 temp2612_21))
(assert (= temp2612_23 #x0000000000000000))
(assert (= temp2612_22 temp2612_23))
(assert (= temp2612_25 #x0000000000000000))
(assert (= temp2612_24 temp2612_25))
(assert (= temp2612_27 #x0000000000000000))
(assert (= temp2612_26 temp2612_27))
(assert (= temp2612_29 #x0000000000000000))
(assert (= temp2612_28 temp2612_29))
(assert (= temp2612_31 #x0000000000000000))
(assert (= temp2612_30 temp2612_31))
(assert (= temp2612_33 #x0000000000000000))
(assert (= temp2612_32 temp2612_33))
(assert (= temp2612_35 #x0000000000000000))
(assert (= temp2612_34 temp2612_35))
(assert (= temp2612_37 #x0000000000000000))
(assert (= temp2612_36 temp2612_37))
(assert (= temp2612_39 #x0000000000000000))
(assert (= temp2612_38 temp2612_39))
(assert (= temp2612_41 #x0000000000000000))
(assert (= temp2612_40 temp2612_41))
(assert (= temp2612_43 #x0000000000000000))
(assert (= temp2612_42 temp2612_43))
(assert (= temp2612_45 #x0000000000000000))
(assert (= temp2612_44 temp2612_45))
(assert (= temp2612_47 #x0000000000000000))
(assert (= temp2612_46 temp2612_47))
(assert (= temp2612_49 #x0000000000000000))
(assert (= temp2612_48 temp2612_49))
(assert (= temp2612_51 #x0000000000000000))
(assert (= temp2612_50 temp2612_51))
(assert (= temp2612_53 #x0000000000000000))
(assert (= temp2612_52 temp2612_53))
(model-add temp2612_1 () (_ BitVec 64) #x0000000000000007)
(model-add var527257 () (_ BitVec 64) #x0000000000000007)
(model-add var527256 () (_ BitVec 64) #x0000000000000007)
(model-add var134691 () (_ BitVec 64) #x0000000000000007)
(model-add var594101 () (_ BitVec 64) #x0000000000000007)
(model-add var659958 () (_ BitVec 64) #x0000000000000007)
(model-add temp2612_2 () (_ BitVec 64) #x0000000000000000)
(model-add var2756219 () (_ BitVec 64) #x0000000000000000)
(model-add var2756224 () (_ BitVec 64) #x0000000000000000)
(model-add var2885852 () (_ BitVec 64) #x0000000000000000)
(model-add temp2612_3 () (_ BitVec 64) #x0000000000000000)
(model-add var2953471 () (_ BitVec 64) #x0000000000000000)
(model-add var2953459 () (_ BitVec 64) #x0000000000000000)
(model-add var134752 () (_ BitVec 64) #x0000000000000000)
(model-add temp2612_4 () (_ BitVec 64) #x0000000000000000)

